NAME : random_0
COMMENT : 40 random nodes
TYPE : TSP
DIMENSION : 40
EDGE_WEIGHT_TYPE : EUC_2D
NODE_COORD_SECTION
1 584 390
2 387 309
3 172 364
4 578 841
5 542 700
6 623 789
7 350 616
8 192 710
9 262 963
10 843 857
11 182 145
12 394 335
13 720 207
14 26 816
15 301 11
16 757 245
17 929 340
18 878 147
19 751 782
20 650 328
21 202 449
22 241 431
23 944 899
24 464 684
25 692 173
26 828 753
27 973 688
28 570 542
29 29 591
30 648 960
31 60 112
32 329 817
33 873 141
34 297 328
35 430 562
36 199 452
37 658 719
38 436 702
39 100 711
40 956 754
EOF